% demand
num_movements = 39;
loading_factor = [1250, 1750, 1650, 1900, 1250, 1600, 1200, 1550, 1650, 1300, 1400, 1500, 1600, 850, 800, 900, 1300, 1450, 1450, 1900, 1550, 1700, 1750, 1200, 1200, 1900, 1400, 1200, 850, 1450, 1150, 900, 1300, 1650, 1100, 1000, 1600, 800, 1250];
pickup_time = [0, 0, 0, 0, 0, 0, 0, 1, 1, 1, 1, 3, 3, 4, 4, 4, 4, 4, 4, 4, 5, 6, 6, 6, 7, 7, 8, 8, 8, 8, 9, 9, 10, 10, 10, 11, 12, 12, 12];
delivery_time = [1, 2, 6, 1, 4, 1, 1, 4, 2, 2, 4, 4, 4, 6, 6, 6, 6, 6, 5, 6, 6, 8, 8, 7, 8, 8, 12, 12, 11, 11, 11, 13, 12, 12, 12, 12, 13, 13, 13];

% transporter definition
total_capacity = 11000;
num_decks = 4;
capacity = [3000, 3000, 1000, 4000];

% ways out of decks
num_ways_out = 2;
paths_out = array3d(decks, ways_out, decks, [
% ways out of deck d1
2, 4, 0, 0, 3, 4, 0, 0, 

% ways out of deck d2
4, 0, 0, 0, 0, 0, 0, 0,	

% ways out of deck d3
4, 0, 0, 0, 0, 0, 0, 0,	

% ways out of deck d4
0, 0, 0, 0,	0, 0, 0, 0,	

]);

